webassembly/ejemplos_dzn/folder6_json_3.dzn
TERM = { '.', 's(2)', 'local_0', 'local_1', 's(1)', 's(0)', 'in_0'};
null = '.';
s = 6;
n = 7;
ndeps = 2;
max_registers_sz = 3;
NR = 0;
registers = [| |];
dependencies = [|'i32.load8_u_0', 'i32.store8_3', |'i32.load16_u_2', 'i32.store8_3'|];
GET_ENUM = { GET1, GET2, GET3};
SET_ENUM = { SET1, SET2, SET3};
TEE_ENUM = { TEE1, TEE2, TEE3};
N = 6;
OP = { 'i32.load8_u_0', 'i32.const_0', 'i32.load16_u_2', 'i32.store8_3', 'local.get_0', 'local.get_1' };
in_ops = [1, 0, 1, 2, 0, 0 ];
out_ops = [1, 1, 1, 0, 1, 1 ];
in1 = ['in_0', '.', 's(2)', 's(1)', '.', '.' ];
in2 = ['.', '.', '.', 's(0)', '.', '.' ];
in3 = ['.', '.', '.', '.', '.', '.' ];
out1 = ['s(0)', 's(2)', 's(1)', '.', 'local_0', 'local_1' ];
out2 = ['.', '.', '.', '.', '.', '.' ];
out3 = ['.', '.', '.', '.', '.', '.' ];
comm = [false, false, false, false, false, false ];
gas = [1, 1, 1, 1, 1, 1 ];
sz = [1, 1, 1, 1, 1, 1 ];
stor = [false, false, false, true, false, false ];
lb = [ 1, 1, 1, 1, 1, 1 ];
ub = [ 6, 6, 6, 6, 6, 6 ];
startstack = [ 'in_0', null, null, null, null, null, null ];
endstack = [ 'local_0', 'local_1', null, null, null, null, null ];
