webassembly/ejemplos_results/6/folder6_json_3.txt
value = 6;
fgas = [1, 1, 1, 1, 1, 1];
fsize = [1, 1, 1, 1, 1, 1];
states = 
[|    in_0,     '.', '.', '.', '.', '.',  '.'
 |  's(0)',     '.', '.', '.', '.', '.', in_0
 |  's(2)',  's(0)', '.', '.', '.', '.',  '.'
 |  's(1)',  's(0)', '.', '.', '.', '.', in_0
 |     '.',     '.', '.', '.', '.', '.', in_0
 | local_1,     '.', '.', '.', '.', '.',  '.'
 | local_0, local_1, '.', '.', '.', '.',  '.'
 |];
register_states = 
[| '.', '.', '.'
 | '.', '.', '.'
 | '.', '.', '.'
 | '.', '.', '.'
 | '.', '.', '.'
 | '.', '.', '.'
 | '.', '.', '.'
 |];
program = [O('i32.load8_u_0'), O('i32.const_0'), O('i32.load16_u_2'), O('i32.store8_3'), O('local.get_1'), O('local.get_0')];
% time elapsed: 0.07 s
----------
==========
% time elapsed: 0.07 s
% [value > 5]
